p cnf 252 1008
1 2 3 4 5 6 0
-1 7 0
-2 8 0
-3 9 0
-4 10 0
-5 11 0
-6 12 0
-7 -2 0
-8 -3 0
-9 -4 0
-10 -5 0
-11 -6 0
-7 8 0
-8 9 0
-9 10 0
-10 11 0
-11 12 0
12 0
13 14 15 16 17 18 0
-13 19 0
-14 20 0
-15 21 0
-16 22 0
-17 23 0
-18 24 0
-19 -14 0
-20 -15 0
-21 -16 0
-22 -17 0
-23 -18 0
-19 20 0
-20 21 0
-21 22 0
-22 23 0
-23 24 0
24 0
25 26 27 28 29 30 0
-25 31 0
-26 32 0
-27 33 0
-28 34 0
-29 35 0
-30 36 0
-31 -26 0
-32 -27 0
-33 -28 0
-34 -29 0
-35 -30 0
-31 32 0
-32 33 0
-33 34 0
-34 35 0
-35 36 0
36 0
37 38 39 40 41 42 0
-37 43 0
-38 44 0
-39 45 0
-40 46 0
-41 47 0
-42 48 0
-43 -38 0
-44 -39 0
-45 -40 0
-46 -41 0
-47 -42 0
-43 44 0
-44 45 0
-45 46 0
-46 47 0
-47 48 0
48 0
49 50 51 52 53 54 0
-49 55 0
-50 56 0
-51 57 0
-52 58 0
-53 59 0
-54 60 0
-55 -50 0
-56 -51 0
-57 -52 0
-58 -53 0
-59 -54 0
-55 56 0
-56 57 0
-57 58 0
-58 59 0
-59 60 0
60 0
61 62 63 64 65 66 0
-61 67 0
-62 68 0
-63 69 0
-64 70 0
-65 71 0
-66 72 0
-67 -62 0
-68 -63 0
-69 -64 0
-70 -65 0
-71 -66 0
-67 68 0
-68 69 0
-69 70 0
-70 71 0
-71 72 0
72 0
73 74 75 76 77 78 0
-73 79 0
-74 80 0
-75 81 0
-76 82 0
-77 83 0
-78 84 0
-79 -74 0
-80 -75 0
-81 -76 0
-82 -77 0
-83 -78 0
-79 80 0
-80 81 0
-81 82 0
-82 83 0
-83 84 0
84 0
85 86 87 88 89 90 0
-85 91 0
-86 92 0
-87 93 0
-88 94 0
-89 95 0
-90 96 0
-91 -86 0
-92 -87 0
-93 -88 0
-94 -89 0
-95 -90 0
-91 92 0
-92 93 0
-93 94 0
-94 95 0
-95 96 0
96 0
97 98 99 100 101 102 0
-97 103 0
-98 104 0
-99 105 0
-100 106 0
-101 107 0
-102 108 0
-103 -98 0
-104 -99 0
-105 -100 0
-106 -101 0
-107 -102 0
-103 104 0
-104 105 0
-105 106 0
-106 107 0
-107 108 0
108 0
109 110 111 112 113 114 0
-109 115 0
-110 116 0
-111 117 0
-112 118 0
-113 119 0
-114 120 0
-115 -110 0
-116 -111 0
-117 -112 0
-118 -113 0
-119 -114 0
-115 116 0
-116 117 0
-117 118 0
-118 119 0
-119 120 0
120 0
121 122 123 124 125 126 0
-121 127 0
-122 128 0
-123 129 0
-124 130 0
-125 131 0
-126 132 0
-127 -122 0
-128 -123 0
-129 -124 0
-130 -125 0
-131 -126 0
-127 128 0
-128 129 0
-129 130 0
-130 131 0
-131 132 0
132 0
133 134 135 136 137 138 0
-133 139 0
-134 140 0
-135 141 0
-136 142 0
-137 143 0
-138 144 0
-139 -134 0
-140 -135 0
-141 -136 0
-142 -137 0
-143 -138 0
-139 140 0
-140 141 0
-141 142 0
-142 143 0
-143 144 0
144 0
145 146 147 148 149 150 0
-145 151 0
-146 152 0
-147 153 0
-148 154 0
-149 155 0
-150 156 0
-151 -146 0
-152 -147 0
-153 -148 0
-154 -149 0
-155 -150 0
-151 152 0
-152 153 0
-153 154 0
-154 155 0
-155 156 0
156 0
157 158 159 160 161 162 0
-157 163 0
-158 164 0
-159 165 0
-160 166 0
-161 167 0
-162 168 0
-163 -158 0
-164 -159 0
-165 -160 0
-166 -161 0
-167 -162 0
-163 164 0
-164 165 0
-165 166 0
-166 167 0
-167 168 0
168 0
169 170 171 172 173 174 0
-169 175 0
-170 176 0
-171 177 0
-172 178 0
-173 179 0
-174 180 0
-175 -170 0
-176 -171 0
-177 -172 0
-178 -173 0
-179 -174 0
-175 176 0
-176 177 0
-177 178 0
-178 179 0
-179 180 0
180 0
181 182 183 184 185 186 0
-181 187 0
-182 188 0
-183 189 0
-184 190 0
-185 191 0
-186 192 0
-187 -182 0
-188 -183 0
-189 -184 0
-190 -185 0
-191 -186 0
-187 188 0
-188 189 0
-189 190 0
-190 191 0
-191 192 0
192 0
193 194 195 196 197 198 0
-193 199 0
-194 200 0
-195 201 0
-196 202 0
-197 203 0
-198 204 0
-199 -194 0
-200 -195 0
-201 -196 0
-202 -197 0
-203 -198 0
-199 200 0
-200 201 0
-201 202 0
-202 203 0
-203 204 0
204 0
205 206 207 208 209 210 0
-205 211 0
-206 212 0
-207 213 0
-208 214 0
-209 215 0
-210 216 0
-211 -206 0
-212 -207 0
-213 -208 0
-214 -209 0
-215 -210 0
-211 212 0
-212 213 0
-213 214 0
-214 215 0
-215 216 0
216 0
217 218 219 220 221 222 0
-217 223 0
-218 224 0
-219 225 0
-220 226 0
-221 227 0
-222 228 0
-223 -218 0
-224 -219 0
-225 -220 0
-226 -221 0
-227 -222 0
-223 224 0
-224 225 0
-225 226 0
-226 227 0
-227 228 0
228 0
229 230 231 232 233 234 0
-229 235 0
-230 236 0
-231 237 0
-232 238 0
-233 239 0
-234 240 0
-235 -230 0
-236 -231 0
-237 -232 0
-238 -233 0
-239 -234 0
-235 236 0
-236 237 0
-237 238 0
-238 239 0
-239 240 0
240 0
241 242 243 244 245 246 0
-241 247 0
-242 248 0
-243 249 0
-244 250 0
-245 251 0
-246 252 0
-247 -242 0
-248 -243 0
-249 -244 0
-250 -245 0
-251 -246 0
-247 248 0
-248 249 0
-249 250 0
-250 251 0
-251 252 0
252 0
-1 -13 0
-2 -14 0
-3 -15 0
-4 -16 0
-5 -17 0
-6 -18 0
-1 -25 0
-2 -26 0
-3 -27 0
-4 -28 0
-5 -29 0
-6 -30 0
-1 -37 0
-2 -38 0
-3 -39 0
-4 -40 0
-5 -41 0
-6 -42 0
-1 -49 0
-2 -50 0
-3 -51 0
-4 -52 0
-5 -53 0
-6 -54 0
-1 -61 0
-2 -62 0
-3 -63 0
-4 -64 0
-5 -65 0
-6 -66 0
-13 -25 0
-14 -26 0
-15 -27 0
-16 -28 0
-17 -29 0
-18 -30 0
-13 -37 0
-14 -38 0
-15 -39 0
-16 -40 0
-17 -41 0
-18 -42 0
-13 -49 0
-14 -50 0
-15 -51 0
-16 -52 0
-17 -53 0
-18 -54 0
-13 -61 0
-14 -62 0
-15 -63 0
-16 -64 0
-17 -65 0
-18 -66 0
-25 -37 0
-26 -38 0
-27 -39 0
-28 -40 0
-29 -41 0
-30 -42 0
-25 -49 0
-26 -50 0
-27 -51 0
-28 -52 0
-29 -53 0
-30 -54 0
-25 -61 0
-26 -62 0
-27 -63 0
-28 -64 0
-29 -65 0
-30 -66 0
-37 -49 0
-38 -50 0
-39 -51 0
-40 -52 0
-41 -53 0
-42 -54 0
-37 -61 0
-38 -62 0
-39 -63 0
-40 -64 0
-41 -65 0
-42 -66 0
-49 -61 0
-50 -62 0
-51 -63 0
-52 -64 0
-53 -65 0
-54 -66 0
-1 -73 0
-13 -73 0
-2 -74 0
-14 -74 0
-3 -75 0
-15 -75 0
-4 -76 0
-16 -76 0
-5 -77 0
-17 -77 0
-6 -78 0
-18 -78 0
-1 -85 0
-25 -85 0
-2 -86 0
-26 -86 0
-3 -87 0
-27 -87 0
-4 -88 0
-28 -88 0
-5 -89 0
-29 -89 0
-6 -90 0
-30 -90 0
-1 -97 0
-37 -97 0
-2 -98 0
-38 -98 0
-3 -99 0
-39 -99 0
-4 -100 0
-40 -100 0
-5 -101 0
-41 -101 0
-6 -102 0
-42 -102 0
-1 -109 0
-49 -109 0
-2 -110 0
-50 -110 0
-3 -111 0
-51 -111 0
-4 -112 0
-52 -112 0
-5 -113 0
-53 -113 0
-6 -114 0
-54 -114 0
-1 -121 0
-61 -121 0
-2 -122 0
-62 -122 0
-3 -123 0
-63 -123 0
-4 -124 0
-64 -124 0
-5 -125 0
-65 -125 0
-6 -126 0
-66 -126 0
-13 -133 0
-25 -133 0
-14 -134 0
-26 -134 0
-15 -135 0
-27 -135 0
-16 -136 0
-28 -136 0
-17 -137 0
-29 -137 0
-18 -138 0
-30 -138 0
-13 -145 0
-37 -145 0
-14 -146 0
-38 -146 0
-15 -147 0
-39 -147 0
-16 -148 0
-40 -148 0
-17 -149 0
-41 -149 0
-18 -150 0
-42 -150 0
-13 -157 0
-49 -157 0
-14 -158 0
-50 -158 0
-15 -159 0
-51 -159 0
-16 -160 0
-52 -160 0
-17 -161 0
-53 -161 0
-18 -162 0
-54 -162 0
-13 -169 0
-61 -169 0
-14 -170 0
-62 -170 0
-15 -171 0
-63 -171 0
-16 -172 0
-64 -172 0
-17 -173 0
-65 -173 0
-18 -174 0
-66 -174 0
-25 -181 0
-37 -181 0
-26 -182 0
-38 -182 0
-27 -183 0
-39 -183 0
-28 -184 0
-40 -184 0
-29 -185 0
-41 -185 0
-30 -186 0
-42 -186 0
-25 -193 0
-49 -193 0
-26 -194 0
-50 -194 0
-27 -195 0
-51 -195 0
-28 -196 0
-52 -196 0
-29 -197 0
-53 -197 0
-30 -198 0
-54 -198 0
-25 -205 0
-61 -205 0
-26 -206 0
-62 -206 0
-27 -207 0
-63 -207 0
-28 -208 0
-64 -208 0
-29 -209 0
-65 -209 0
-30 -210 0
-66 -210 0
-37 -217 0
-49 -217 0
-38 -218 0
-50 -218 0
-39 -219 0
-51 -219 0
-40 -220 0
-52 -220 0
-41 -221 0
-53 -221 0
-42 -222 0
-54 -222 0
-37 -229 0
-61 -229 0
-38 -230 0
-62 -230 0
-39 -231 0
-63 -231 0
-40 -232 0
-64 -232 0
-41 -233 0
-65 -233 0
-42 -234 0
-66 -234 0
-49 -241 0
-61 -241 0
-50 -242 0
-62 -242 0
-51 -243 0
-63 -243 0
-52 -244 0
-64 -244 0
-53 -245 0
-65 -245 0
-54 -246 0
-66 -246 0
-73 -85 0
-74 -86 0
-75 -87 0
-76 -88 0
-77 -89 0
-78 -90 0
-73 -97 0
-74 -98 0
-75 -99 0
-76 -100 0
-77 -101 0
-78 -102 0
-73 -109 0
-74 -110 0
-75 -111 0
-76 -112 0
-77 -113 0
-78 -114 0
-73 -121 0
-74 -122 0
-75 -123 0
-76 -124 0
-77 -125 0
-78 -126 0
-73 -133 0
-74 -134 0
-75 -135 0
-76 -136 0
-77 -137 0
-78 -138 0
-73 -145 0
-74 -146 0
-75 -147 0
-76 -148 0
-77 -149 0
-78 -150 0
-73 -157 0
-74 -158 0
-75 -159 0
-76 -160 0
-77 -161 0
-78 -162 0
-73 -169 0
-74 -170 0
-75 -171 0
-76 -172 0
-77 -173 0
-78 -174 0
-85 -97 0
-86 -98 0
-87 -99 0
-88 -100 0
-89 -101 0
-90 -102 0
-85 -109 0
-86 -110 0
-87 -111 0
-88 -112 0
-89 -113 0
-90 -114 0
-85 -121 0
-86 -122 0
-87 -123 0
-88 -124 0
-89 -125 0
-90 -126 0
-85 -133 0
-86 -134 0
-87 -135 0
-88 -136 0
-89 -137 0
-90 -138 0
-85 -181 0
-86 -182 0
-87 -183 0
-88 -184 0
-89 -185 0
-90 -186 0
-85 -193 0
-86 -194 0
-87 -195 0
-88 -196 0
-89 -197 0
-90 -198 0
-85 -205 0
-86 -206 0
-87 -207 0
-88 -208 0
-89 -209 0
-90 -210 0
-97 -109 0
-98 -110 0
-99 -111 0
-100 -112 0
-101 -113 0
-102 -114 0
-97 -121 0
-98 -122 0
-99 -123 0
-100 -124 0
-101 -125 0
-102 -126 0
-97 -145 0
-98 -146 0
-99 -147 0
-100 -148 0
-101 -149 0
-102 -150 0
-97 -181 0
-98 -182 0
-99 -183 0
-100 -184 0
-101 -185 0
-102 -186 0
-97 -217 0
-98 -218 0
-99 -219 0
-100 -220 0
-101 -221 0
-102 -222 0
-97 -229 0
-98 -230 0
-99 -231 0
-100 -232 0
-101 -233 0
-102 -234 0
-109 -121 0
-110 -122 0
-111 -123 0
-112 -124 0
-113 -125 0
-114 -126 0
-109 -157 0
-110 -158 0
-111 -159 0
-112 -160 0
-113 -161 0
-114 -162 0
-109 -193 0
-110 -194 0
-111 -195 0
-112 -196 0
-113 -197 0
-114 -198 0
-109 -217 0
-110 -218 0
-111 -219 0
-112 -220 0
-113 -221 0
-114 -222 0
-109 -241 0
-110 -242 0
-111 -243 0
-112 -244 0
-113 -245 0
-114 -246 0
-121 -169 0
-122 -170 0
-123 -171 0
-124 -172 0
-125 -173 0
-126 -174 0
-121 -205 0
-122 -206 0
-123 -207 0
-124 -208 0
-125 -209 0
-126 -210 0
-121 -229 0
-122 -230 0
-123 -231 0
-124 -232 0
-125 -233 0
-126 -234 0
-121 -241 0
-122 -242 0
-123 -243 0
-124 -244 0
-125 -245 0
-126 -246 0
-133 -145 0
-134 -146 0
-135 -147 0
-136 -148 0
-137 -149 0
-138 -150 0
-133 -157 0
-134 -158 0
-135 -159 0
-136 -160 0
-137 -161 0
-138 -162 0
-133 -169 0
-134 -170 0
-135 -171 0
-136 -172 0
-137 -173 0
-138 -174 0
-133 -181 0
-134 -182 0
-135 -183 0
-136 -184 0
-137 -185 0
-138 -186 0
-133 -193 0
-134 -194 0
-135 -195 0
-136 -196 0
-137 -197 0
-138 -198 0
-133 -205 0
-134 -206 0
-135 -207 0
-136 -208 0
-137 -209 0
-138 -210 0
-145 -157 0
-146 -158 0
-147 -159 0
-148 -160 0
-149 -161 0
-150 -162 0
-145 -169 0
-146 -170 0
-147 -171 0
-148 -172 0
-149 -173 0
-150 -174 0
-145 -181 0
-146 -182 0
-147 -183 0
-148 -184 0
-149 -185 0
-150 -186 0
-145 -217 0
-146 -218 0
-147 -219 0
-148 -220 0
-149 -221 0
-150 -222 0
-145 -229 0
-146 -230 0
-147 -231 0
-148 -232 0
-149 -233 0
-150 -234 0
-157 -169 0
-158 -170 0
-159 -171 0
-160 -172 0
-161 -173 0
-162 -174 0
-157 -193 0
-158 -194 0
-159 -195 0
-160 -196 0
-161 -197 0
-162 -198 0
-157 -217 0
-158 -218 0
-159 -219 0
-160 -220 0
-161 -221 0
-162 -222 0
-157 -241 0
-158 -242 0
-159 -243 0
-160 -244 0
-161 -245 0
-162 -246 0
-169 -205 0
-170 -206 0
-171 -207 0
-172 -208 0
-173 -209 0
-174 -210 0
-169 -229 0
-170 -230 0
-171 -231 0
-172 -232 0
-173 -233 0
-174 -234 0
-169 -241 0
-170 -242 0
-171 -243 0
-172 -244 0
-173 -245 0
-174 -246 0
-181 -193 0
-182 -194 0
-183 -195 0
-184 -196 0
-185 -197 0
-186 -198 0
-181 -205 0
-182 -206 0
-183 -207 0
-184 -208 0
-185 -209 0
-186 -210 0
-181 -217 0
-182 -218 0
-183 -219 0
-184 -220 0
-185 -221 0
-186 -222 0
-181 -229 0
-182 -230 0
-183 -231 0
-184 -232 0
-185 -233 0
-186 -234 0
-193 -205 0
-194 -206 0
-195 -207 0
-196 -208 0
-197 -209 0
-198 -210 0
-193 -217 0
-194 -218 0
-195 -219 0
-196 -220 0
-197 -221 0
-198 -222 0
-193 -241 0
-194 -242 0
-195 -243 0
-196 -244 0
-197 -245 0
-198 -246 0
-205 -229 0
-206 -230 0
-207 -231 0
-208 -232 0
-209 -233 0
-210 -234 0
-205 -241 0
-206 -242 0
-207 -243 0
-208 -244 0
-209 -245 0
-210 -246 0
-217 -229 0
-218 -230 0
-219 -231 0
-220 -232 0
-221 -233 0
-222 -234 0
-217 -241 0
-218 -242 0
-219 -243 0
-220 -244 0
-221 -245 0
-222 -246 0
-229 -241 0
-230 -242 0
-231 -243 0
-232 -244 0
-233 -245 0
-234 -246 0
